NAME : trivial10
COMMENT : 10 locations sampled from Luxembourg
COMMENT : Derived from National Imagery and Mapping Agency data
TYPE : TSP
DIMENSION : 10
EDGE_WEIGHT_TYPE : EUC_2D
NODE_COORD_SECTION
1 49525.5556 5940.5556
2 49600.0000 6150.0000
3 49738.8889 6345.0000
4 49608.3333 6405.8333
5 49796.6667 6155.5556
6 49828.6111 5764.7222
7 49757.7778 6353.3333
8 49716.3889 6490.0000
9 49533.3333 6316.6667
10 49716.3889 6490.0000
